c nIsolatedPIs 0
c maxPI 20
p cnf 705 2056
c gate 21 10 16 0
10 -21 0
16 -21 0
-10 -16 21 0
c gate 22 8 17 0
8 -22 0
17 -22 0
-8 -17 22 0
c gate 23 7 18 0
7 -23 0
18 -23 0
-7 -18 23 0
c gate 24 22 23 0
22 -24 0
23 -24 0
-22 -23 24 0
c gate 25 6 19 0
6 -25 0
19 -25 0
-6 -19 25 0
c gate 26 -22 -23 0
-22 -26 0
-23 -26 0
22 23 26 0
c gate 27 -24 -26 0
-24 -27 0
-26 -27 0
24 26 27 0
c gate 28 25 27 0
25 -28 0
27 -28 0
-25 -27 28 0
c gate 29 -24 -28 0
-24 -29 0
-28 -29 0
24 28 29 0
c gate 30 7 19 0
7 -30 0
19 -30 0
-7 -19 30 0
c gate 31 9 17 0
9 -31 0
17 -31 0
-9 -17 31 0
c gate 32 8 18 0
8 -32 0
18 -32 0
-8 -18 32 0
c gate 33 -31 -32 0
-31 -33 0
-32 -33 0
31 32 33 0
c gate 34 31 32 0
31 -34 0
32 -34 0
-31 -32 34 0
c gate 35 -33 -34 0
-33 -35 0
-34 -35 0
33 34 35 0
c gate 36 30 35 0
30 -36 0
35 -36 0
-30 -35 36 0
c gate 37 -30 -35 0
-30 -37 0
-35 -37 0
30 35 37 0
c gate 38 -36 -37 0
-36 -38 0
-37 -38 0
36 37 38 0
c gate 39 10 15 0
10 -39 0
15 -39 0
-10 -15 39 0
c gate 40 9 16 0
9 -40 0
16 -40 0
-9 -16 40 0
c gate 41 39 40 0
39 -41 0
40 -41 0
-39 -40 41 0
c gate 42 38 41 0
38 -42 0
41 -42 0
-38 -41 42 0
c gate 43 -38 -41 0
-38 -43 0
-41 -43 0
38 41 43 0
c gate 44 -42 -43 0
-42 -44 0
-43 -44 0
42 43 44 0
c gate 45 29 -44 0
29 -45 0
-44 -45 0
-29 44 45 0
c gate 46 -29 44 0
-29 -46 0
44 -46 0
29 -44 46 0
c gate 47 -45 -46 0
-45 -47 0
-46 -47 0
45 46 47 0
c gate 48 21 47 0
21 -48 0
47 -48 0
-21 -47 48 0
c gate 49 -34 -36 0
-34 -49 0
-36 -49 0
34 36 49 0
c gate 50 8 19 0
8 -50 0
19 -50 0
-8 -19 50 0
c gate 51 9 18 0
9 -51 0
18 -51 0
-9 -18 51 0
c gate 52 10 17 0
10 -52 0
17 -52 0
-10 -17 52 0
c gate 53 -51 -52 0
-51 -53 0
-52 -53 0
51 52 53 0
c gate 54 51 52 0
51 -54 0
52 -54 0
-51 -52 54 0
c gate 55 -53 -54 0
-53 -55 0
-54 -55 0
53 54 55 0
c gate 56 50 55 0
50 -56 0
55 -56 0
-50 -55 56 0
c gate 57 -50 -55 0
-50 -57 0
-55 -57 0
50 55 57 0
c gate 58 -56 -57 0
-56 -58 0
-57 -58 0
56 57 58 0
c gate 59 -49 58 0
-49 -59 0
58 -59 0
49 -58 59 0
c gate 60 49 -58 0
49 -60 0
-58 -60 0
-49 58 60 0
c gate 61 -59 -60 0
-59 -61 0
-60 -61 0
59 60 61 0
c gate 62 48 61 0
48 -62 0
61 -62 0
-48 -61 62 0
c gate 63 -42 -46 0
-42 -63 0
-46 -63 0
42 46 63 0
c gate 64 -48 -61 0
-48 -64 0
-61 -64 0
48 61 64 0
c gate 65 -62 -64 0
-62 -65 0
-64 -65 0
62 64 65 0
c gate 66 -63 65 0
-63 -66 0
65 -66 0
63 -65 66 0
c gate 67 -62 -66 0
-62 -67 0
-66 -67 0
62 66 67 0
c gate 68 -54 -56 0
-54 -68 0
-56 -68 0
54 56 68 0
c gate 69 10 18 0
10 -69 0
18 -69 0
-10 -18 69 0
c gate 70 9 19 0
9 -70 0
19 -70 0
-9 -19 70 0
c gate 71 69 -70 0
69 -71 0
-70 -71 0
-69 70 71 0
c gate 72 -69 70 0
-69 -72 0
70 -72 0
69 -70 72 0
c gate 73 -71 -72 0
-71 -73 0
-72 -73 0
71 72 73 0
c gate 74 -68 -73 0
-68 -74 0
-73 -74 0
68 73 74 0
c gate 75 68 73 0
68 -75 0
73 -75 0
-68 -73 75 0
c gate 76 -74 -75 0
-74 -76 0
-75 -76 0
74 75 76 0
c gate 77 59 76 0
59 -77 0
76 -77 0
-59 -76 77 0
c gate 78 -59 -76 0
-59 -78 0
-76 -78 0
59 76 78 0
c gate 79 -77 -78 0
-77 -79 0
-78 -79 0
77 78 79 0
c gate 80 -67 79 0
-67 -80 0
79 -80 0
67 -79 80 0
c gate 81 8 20 0
8 -81 0
20 -81 0
-8 -20 81 0
c gate 82 67 -79 0
67 -82 0
-79 -82 0
-67 79 82 0
c gate 83 -80 -82 0
-80 -83 0
-82 -83 0
80 82 83 0
c gate 84 81 83 0
81 -84 0
83 -84 0
-81 -83 84 0
c gate 85 -80 -84 0
-80 -85 0
-84 -85 0
80 84 85 0
c gate 86 9 20 0
9 -86 0
20 -86 0
-9 -20 86 0
c gate 87 10 19 0
10 -87 0
19 -87 0
-10 -19 87 0
c gate 88 -51 -74 0
-51 -88 0
-74 -88 0
51 74 88 0
c gate 89 87 -88 0
87 -89 0
-88 -89 0
-87 88 89 0
c gate 90 -74 -87 0
-74 -90 0
-87 -90 0
74 87 90 0
c gate 91 -89 -90 0
-89 -91 0
-90 -91 0
89 90 91 0
c gate 92 77 91 0
77 -92 0
91 -92 0
-77 -91 92 0
c gate 93 -77 -91 0
-77 -93 0
-91 -93 0
77 91 93 0
c gate 94 -92 -93 0
-92 -94 0
-93 -94 0
92 93 94 0
c gate 95 86 94 0
86 -95 0
94 -95 0
-86 -94 95 0
c gate 96 -86 -94 0
-86 -96 0
-94 -96 0
86 94 96 0
c gate 97 -95 -96 0
-95 -97 0
-96 -97 0
95 96 97 0
c gate 98 -85 97 0
-85 -98 0
97 -98 0
85 -97 98 0
c gate 99 7 16 0
7 -99 0
16 -99 0
-7 -16 99 0
c gate 100 9 14 0
9 -100 0
14 -100 0
-9 -14 100 0
c gate 101 8 15 0
8 -101 0
15 -101 0
-8 -15 101 0
c gate 102 -100 -101 0
-100 -102 0
-101 -102 0
100 101 102 0
c gate 103 100 101 0
100 -103 0
101 -103 0
-100 -101 103 0
c gate 104 -102 -103 0
-102 -104 0
-103 -104 0
102 103 104 0
c gate 105 -99 -104 0
-99 -105 0
-104 -105 0
99 104 105 0
c gate 106 99 104 0
99 -106 0
104 -106 0
-99 -104 106 0
c gate 107 -105 -106 0
-105 -107 0
-106 -107 0
105 106 107 0
c gate 108 9 12 0
9 -108 0
12 -108 0
-9 -12 108 0
c gate 109 10 13 0
10 -109 0
13 -109 0
-10 -13 109 0
c gate 110 -108 109 0
-108 -110 0
109 -110 0
108 -109 110 0
c gate 111 107 110 0
107 -111 0
110 -111 0
-107 -110 111 0
c gate 112 10 12 0
10 -112 0
12 -112 0
-10 -12 112 0
c gate 113 9 13 0
9 -113 0
13 -113 0
-9 -13 113 0
c gate 114 112 113 0
112 -114 0
113 -114 0
-112 -113 114 0
c gate 115 -111 -114 0
-111 -115 0
-114 -115 0
111 114 115 0
c gate 116 8 16 0
8 -116 0
16 -116 0
-8 -16 116 0
c gate 117 9 15 0
9 -117 0
15 -117 0
-9 -15 117 0
c gate 118 10 14 0
10 -118 0
14 -118 0
-10 -14 118 0
c gate 119 117 118 0
117 -119 0
118 -119 0
-117 -118 119 0
c gate 120 -117 -118 0
-117 -120 0
-118 -120 0
117 118 120 0
c gate 121 -119 -120 0
-119 -121 0
-120 -121 0
119 120 121 0
c gate 122 116 121 0
116 -122 0
121 -122 0
-116 -121 122 0
c gate 123 -116 -121 0
-116 -123 0
-121 -123 0
116 121 123 0
c gate 124 -122 -123 0
-122 -124 0
-123 -124 0
122 123 124 0
c gate 125 -115 124 0
-115 -125 0
124 -125 0
115 -124 125 0
c gate 126 6 17 0
6 -126 0
17 -126 0
-6 -17 126 0
c gate 127 5 18 0
5 -127 0
18 -127 0
-5 -18 127 0
c gate 128 126 127 0
126 -128 0
127 -128 0
-126 -127 128 0
c gate 129 4 19 0
4 -129 0
19 -129 0
-4 -19 129 0
c gate 130 -126 -127 0
-126 -130 0
-127 -130 0
126 127 130 0
c gate 131 -128 -130 0
-128 -131 0
-130 -131 0
128 130 131 0
c gate 132 129 131 0
129 -132 0
131 -132 0
-129 -131 132 0
c gate 133 -128 -132 0
-128 -133 0
-132 -133 0
128 132 133 0
c gate 134 5 19 0
5 -134 0
19 -134 0
-5 -19 134 0
c gate 135 7 17 0
7 -135 0
17 -135 0
-7 -17 135 0
c gate 136 6 18 0
6 -136 0
18 -136 0
-6 -18 136 0
c gate 137 135 136 0
135 -137 0
136 -137 0
-135 -136 137 0
c gate 138 -135 -136 0
-135 -138 0
-136 -138 0
135 136 138 0
c gate 139 -137 -138 0
-137 -139 0
-138 -139 0
137 138 139 0
c gate 140 134 139 0
134 -140 0
139 -140 0
-134 -139 140 0
c gate 141 -134 -139 0
-134 -141 0
-139 -141 0
134 139 141 0
c gate 142 -140 -141 0
-140 -142 0
-141 -142 0
140 141 142 0
c gate 143 -103 -106 0
-103 -143 0
-106 -143 0
103 106 143 0
c gate 144 142 -143 0
142 -144 0
-143 -144 0
-142 143 144 0
c gate 145 -142 143 0
-142 -145 0
143 -145 0
142 -143 145 0
c gate 146 -144 -145 0
-144 -146 0
-145 -146 0
144 145 146 0
c gate 147 133 -146 0
133 -147 0
-146 -147 0
-133 146 147 0
c gate 148 -133 146 0
-133 -148 0
146 -148 0
133 -146 148 0
c gate 149 -147 -148 0
-147 -149 0
-148 -149 0
147 148 149 0
c gate 150 115 -124 0
115 -150 0
-124 -150 0
-115 124 150 0
c gate 151 -125 -150 0
-125 -151 0
-150 -151 0
125 150 151 0
c gate 152 149 151 0
149 -152 0
151 -152 0
-149 -151 152 0
c gate 153 -125 -152 0
-125 -153 0
-152 -153 0
125 152 153 0
c gate 154 -39 -40 0
-39 -154 0
-40 -154 0
39 40 154 0
c gate 155 -41 -154 0
-41 -155 0
-154 -155 0
41 154 155 0
c gate 156 -137 -140 0
-137 -156 0
-140 -156 0
137 140 156 0
c gate 157 -25 -27 0
-25 -157 0
-27 -157 0
25 27 157 0
c gate 158 -28 -157 0
-28 -158 0
-157 -158 0
28 157 158 0
c gate 159 -119 -122 0
-119 -159 0
-122 -159 0
119 122 159 0
c gate 160 158 -159 0
158 -160 0
-159 -160 0
-158 159 160 0
c gate 161 -158 159 0
-158 -161 0
159 -161 0
158 -159 161 0
c gate 162 -160 -161 0
-160 -162 0
-161 -162 0
160 161 162 0
c gate 163 156 -162 0
156 -163 0
-162 -163 0
-156 162 163 0
c gate 164 -156 162 0
-156 -164 0
162 -164 0
156 -162 164 0
c gate 165 -163 -164 0
-163 -165 0
-164 -165 0
163 164 165 0
c gate 166 155 165 0
155 -166 0
165 -166 0
-155 -165 166 0
c gate 167 -155 -165 0
-155 -167 0
-165 -167 0
155 165 167 0
c gate 168 -166 -167 0
-166 -168 0
-167 -168 0
166 167 168 0
c gate 169 -153 168 0
-153 -169 0
168 -169 0
153 -168 169 0
c gate 170 -144 -148 0
-144 -170 0
-148 -170 0
144 148 170 0
c gate 171 153 -168 0
153 -171 0
-168 -171 0
-153 168 171 0
c gate 172 -169 -171 0
-169 -172 0
-171 -172 0
169 171 172 0
c gate 173 -170 172 0
-170 -173 0
172 -173 0
170 -172 173 0
c gate 174 -169 -173 0
-169 -174 0
-173 -174 0
169 173 174 0
c gate 175 -160 -164 0
-160 -175 0
-164 -175 0
160 164 175 0
c gate 176 -21 -47 0
-21 -176 0
-47 -176 0
21 47 176 0
c gate 177 -48 -176 0
-48 -177 0
-176 -177 0
48 176 177 0
c gate 178 166 177 0
166 -178 0
177 -178 0
-166 -177 178 0
c gate 179 -166 -177 0
-166 -179 0
-177 -179 0
166 177 179 0
c gate 180 -178 -179 0
-178 -180 0
-179 -180 0
178 179 180 0
c gate 181 -175 180 0
-175 -181 0
180 -181 0
175 -180 181 0
c gate 182 175 -180 0
175 -182 0
-180 -182 0
-175 180 182 0
c gate 183 -181 -182 0
-181 -183 0
-182 -183 0
181 182 183 0
c gate 184 -174 183 0
-174 -184 0
183 -184 0
174 -183 184 0
c gate 185 6 20 0
6 -185 0
20 -185 0
-6 -20 185 0
c gate 186 174 -183 0
174 -186 0
-183 -186 0
-174 183 186 0
c gate 187 -184 -186 0
-184 -187 0
-186 -187 0
184 186 187 0
c gate 188 185 187 0
185 -188 0
187 -188 0
-185 -187 188 0
c gate 189 -184 -188 0
-184 -189 0
-188 -189 0
184 188 189 0
c gate 190 7 20 0
7 -190 0
20 -190 0
-7 -20 190 0
c gate 191 -178 -181 0
-178 -191 0
-181 -191 0
178 181 191 0
c gate 192 63 -65 0
63 -192 0
-65 -192 0
-63 65 192 0
c gate 193 -66 -192 0
-66 -193 0
-192 -193 0
66 192 193 0
c gate 194 -191 193 0
-191 -194 0
193 -194 0
191 -193 194 0
c gate 195 191 -193 0
191 -195 0
-193 -195 0
-191 193 195 0
c gate 196 -194 -195 0
-194 -196 0
-195 -196 0
194 195 196 0
c gate 197 190 196 0
190 -197 0
196 -197 0
-190 -196 197 0
c gate 198 -190 -196 0
-190 -198 0
-196 -198 0
190 196 198 0
c gate 199 -197 -198 0
-197 -199 0
-198 -199 0
197 198 199 0
c gate 200 189 -199 0
189 -200 0
-199 -200 0
-189 199 200 0
c gate 201 9 11 0
9 -201 0
11 -201 0
-9 -11 201 0
c gate 202 8 12 0
8 -202 0
12 -202 0
-8 -12 202 0
c gate 203 201 202 0
201 -203 0
202 -203 0
-201 -202 203 0
c gate 204 7 13 0
7 -204 0
13 -204 0
-7 -13 204 0
c gate 205 -201 -202 0
-201 -205 0
-202 -205 0
201 202 205 0
c gate 206 -203 -205 0
-203 -206 0
-205 -206 0
203 205 206 0
c gate 207 204 206 0
204 -207 0
206 -207 0
-204 -206 207 0
c gate 208 -203 -207 0
-203 -208 0
-207 -208 0
203 207 208 0
c gate 209 8 13 0
8 -209 0
13 -209 0
-8 -13 209 0
c gate 210 10 11 0
10 -210 0
11 -210 0
-10 -11 210 0
c gate 211 -108 -210 0
-108 -211 0
-210 -211 0
108 210 211 0
c gate 212 108 210 0
108 -212 0
210 -212 0
-108 -210 212 0
c gate 213 -211 -212 0
-211 -213 0
-212 -213 0
211 212 213 0
c gate 214 209 213 0
209 -214 0
213 -214 0
-209 -213 214 0
c gate 215 -209 -213 0
-209 -215 0
-213 -215 0
209 213 215 0
c gate 216 -214 -215 0
-214 -216 0
-215 -216 0
214 215 216 0
c gate 217 -208 216 0
-208 -217 0
216 -217 0
208 -216 217 0
c gate 218 5 16 0
5 -218 0
16 -218 0
-5 -16 218 0
c gate 219 7 14 0
7 -219 0
14 -219 0
-7 -14 219 0
c gate 220 6 15 0
6 -220 0
15 -220 0
-6 -15 220 0
c gate 221 -219 -220 0
-219 -221 0
-220 -221 0
219 220 221 0
c gate 222 219 220 0
219 -222 0
220 -222 0
-219 -220 222 0
c gate 223 -221 -222 0
-221 -223 0
-222 -223 0
221 222 223 0
c gate 224 -218 -223 0
-218 -224 0
-223 -224 0
218 223 224 0
c gate 225 218 223 0
218 -225 0
223 -225 0
-218 -223 225 0
c gate 226 -224 -225 0
-224 -226 0
-225 -226 0
224 225 226 0
c gate 227 208 -216 0
208 -227 0
-216 -227 0
-208 216 227 0
c gate 228 -217 -227 0
-217 -228 0
-227 -228 0
217 227 228 0
c gate 229 226 228 0
226 -229 0
228 -229 0
-226 -228 229 0
c gate 230 -217 -229 0
-217 -230 0
-229 -230 0
217 229 230 0
c gate 231 6 16 0
6 -231 0
16 -231 0
-6 -16 231 0
c gate 232 8 14 0
8 -232 0
14 -232 0
-8 -14 232 0
c gate 233 7 15 0
7 -233 0
15 -233 0
-7 -15 233 0
c gate 234 -232 -233 0
-232 -234 0
-233 -234 0
232 233 234 0
c gate 235 232 233 0
232 -235 0
233 -235 0
-232 -233 235 0
c gate 236 -234 -235 0
-234 -236 0
-235 -236 0
234 235 236 0
c gate 237 -231 -236 0
-231 -237 0
-236 -237 0
231 236 237 0
c gate 238 231 236 0
231 -238 0
236 -238 0
-231 -236 238 0
c gate 239 -237 -238 0
-237 -239 0
-238 -239 0
237 238 239 0
c gate 240 -112 -113 0
-112 -240 0
-113 -240 0
112 113 240 0
c gate 241 -114 -240 0
-114 -241 0
-240 -241 0
114 240 241 0
c gate 242 -212 -214 0
-212 -242 0
-214 -242 0
212 214 242 0
c gate 243 241 -242 0
241 -243 0
-242 -243 0
-241 242 243 0
c gate 244 -241 242 0
-241 -244 0
242 -244 0
241 -242 244 0
c gate 245 -243 -244 0
-243 -245 0
-244 -245 0
243 244 245 0
c gate 246 239 245 0
239 -246 0
245 -246 0
-239 -245 246 0
c gate 247 -239 -245 0
-239 -247 0
-245 -247 0
239 245 247 0
c gate 248 -246 -247 0
-246 -248 0
-247 -248 0
246 247 248 0
c gate 249 -230 248 0
-230 -249 0
248 -249 0
230 -248 249 0
c gate 250 4 17 0
4 -250 0
17 -250 0
-4 -17 250 0
c gate 251 3 18 0
3 -251 0
18 -251 0
-3 -18 251 0
c gate 252 250 251 0
250 -252 0
251 -252 0
-250 -251 252 0
c gate 253 2 19 0
2 -253 0
19 -253 0
-2 -19 253 0
c gate 254 -250 -251 0
-250 -254 0
-251 -254 0
250 251 254 0
c gate 255 -252 -254 0
-252 -255 0
-254 -255 0
252 254 255 0
c gate 256 253 255 0
253 -256 0
255 -256 0
-253 -255 256 0
c gate 257 -252 -256 0
-252 -257 0
-256 -257 0
252 256 257 0
c gate 258 3 19 0
3 -258 0
19 -258 0
-3 -19 258 0
c gate 259 5 17 0
5 -259 0
17 -259 0
-5 -17 259 0
c gate 260 4 18 0
4 -260 0
18 -260 0
-4 -18 260 0
c gate 261 -259 -260 0
-259 -261 0
-260 -261 0
259 260 261 0
c gate 262 259 260 0
259 -262 0
260 -262 0
-259 -260 262 0
c gate 263 -261 -262 0
-261 -263 0
-262 -263 0
261 262 263 0
c gate 264 258 263 0
258 -264 0
263 -264 0
-258 -263 264 0
c gate 265 -258 -263 0
-258 -265 0
-263 -265 0
258 263 265 0
c gate 266 -264 -265 0
-264 -266 0
-265 -266 0
264 265 266 0
c gate 267 -222 -225 0
-222 -267 0
-225 -267 0
222 225 267 0
c gate 268 266 -267 0
266 -268 0
-267 -268 0
-266 267 268 0
c gate 269 -266 267 0
-266 -269 0
267 -269 0
266 -267 269 0
c gate 270 -268 -269 0
-268 -270 0
-269 -270 0
268 269 270 0
c gate 271 257 -270 0
257 -271 0
-270 -271 0
-257 270 271 0
c gate 272 -257 270 0
-257 -272 0
270 -272 0
257 -270 272 0
c gate 273 -271 -272 0
-271 -273 0
-272 -273 0
271 272 273 0
c gate 274 230 -248 0
230 -274 0
-248 -274 0
-230 248 274 0
c gate 275 -249 -274 0
-249 -275 0
-274 -275 0
249 274 275 0
c gate 276 273 275 0
273 -276 0
275 -276 0
-273 -275 276 0
c gate 277 -249 -276 0
-249 -277 0
-276 -277 0
249 276 277 0
c gate 278 -262 -264 0
-262 -278 0
-264 -278 0
262 264 278 0
c gate 279 -129 -131 0
-129 -279 0
-131 -279 0
129 131 279 0
c gate 280 -132 -279 0
-132 -280 0
-279 -280 0
132 279 280 0
c gate 281 -235 -238 0
-235 -281 0
-238 -281 0
235 238 281 0
c gate 282 280 -281 0
280 -282 0
-281 -282 0
-280 281 282 0
c gate 283 -280 281 0
-280 -283 0
281 -283 0
280 -281 283 0
c gate 284 -282 -283 0
-282 -284 0
-283 -284 0
282 283 284 0
c gate 285 278 -284 0
278 -285 0
-284 -285 0
-278 284 285 0
c gate 286 -278 284 0
-278 -286 0
284 -286 0
278 -284 286 0
c gate 287 -285 -286 0
-285 -287 0
-286 -287 0
285 286 287 0
c gate 288 -243 -246 0
-243 -288 0
-246 -288 0
243 246 288 0
c gate 289 -107 -110 0
-107 -289 0
-110 -289 0
107 110 289 0
c gate 290 -111 -289 0
-111 -290 0
-289 -290 0
111 289 290 0
c gate 291 -288 290 0
-288 -291 0
290 -291 0
288 -290 291 0
c gate 292 288 -290 0
288 -292 0
-290 -292 0
-288 290 292 0
c gate 293 -291 -292 0
-291 -293 0
-292 -293 0
291 292 293 0
c gate 294 287 293 0
287 -294 0
293 -294 0
-287 -293 294 0
c gate 295 -287 -293 0
-287 -295 0
-293 -295 0
287 293 295 0
c gate 296 -294 -295 0
-294 -296 0
-295 -296 0
294 295 296 0
c gate 297 -277 296 0
-277 -297 0
296 -297 0
277 -296 297 0
c gate 298 -268 -272 0
-268 -298 0
-272 -298 0
268 272 298 0
c gate 299 277 -296 0
277 -299 0
-296 -299 0
-277 296 299 0
c gate 300 -297 -299 0
-297 -300 0
-299 -300 0
297 299 300 0
c gate 301 -298 300 0
-298 -301 0
300 -301 0
298 -300 301 0
c gate 302 -297 -301 0
-297 -302 0
-301 -302 0
297 301 302 0
c gate 303 -282 -286 0
-282 -303 0
-286 -303 0
282 286 303 0
c gate 304 -291 -294 0
-291 -304 0
-294 -304 0
291 294 304 0
c gate 305 -149 -151 0
-149 -305 0
-151 -305 0
149 151 305 0
c gate 306 -152 -305 0
-152 -306 0
-305 -306 0
152 305 306 0
c gate 307 -304 306 0
-304 -307 0
306 -307 0
304 -306 307 0
c gate 308 304 -306 0
304 -308 0
-306 -308 0
-304 306 308 0
c gate 309 -307 -308 0
-307 -309 0
-308 -309 0
307 308 309 0
c gate 310 -303 309 0
-303 -310 0
309 -310 0
303 -309 310 0
c gate 311 303 -309 0
303 -311 0
-309 -311 0
-303 309 311 0
c gate 312 -310 -311 0
-310 -312 0
-311 -312 0
310 311 312 0
c gate 313 -302 312 0
-302 -313 0
312 -313 0
302 -312 313 0
c gate 314 4 20 0
4 -314 0
20 -314 0
-4 -20 314 0
c gate 315 302 -312 0
302 -315 0
-312 -315 0
-302 312 315 0
c gate 316 -313 -315 0
-313 -316 0
-315 -316 0
313 315 316 0
c gate 317 314 316 0
314 -317 0
316 -317 0
-314 -316 317 0
c gate 318 -313 -317 0
-313 -318 0
-317 -318 0
313 317 318 0
c gate 319 5 20 0
5 -319 0
20 -319 0
-5 -20 319 0
c gate 320 -307 -310 0
-307 -320 0
-310 -320 0
307 310 320 0
c gate 321 170 -172 0
170 -321 0
-172 -321 0
-170 172 321 0
c gate 322 -173 -321 0
-173 -322 0
-321 -322 0
173 321 322 0
c gate 323 -320 322 0
-320 -323 0
322 -323 0
320 -322 323 0
c gate 324 320 -322 0
320 -324 0
-322 -324 0
-320 322 324 0
c gate 325 -323 -324 0
-323 -325 0
-324 -325 0
323 324 325 0
c gate 326 319 325 0
319 -326 0
325 -326 0
-319 -325 326 0
c gate 327 -319 -325 0
-319 -327 0
-325 -327 0
319 325 327 0
c gate 328 -326 -327 0
-326 -328 0
-327 -328 0
326 327 328 0
c gate 329 318 -328 0
318 -329 0
-328 -329 0
-318 328 329 0
c gate 330 -323 -326 0
-323 -330 0
-326 -330 0
323 326 330 0
c gate 331 -185 -187 0
-185 -331 0
-187 -331 0
185 187 331 0
c gate 332 -188 -331 0
-188 -332 0
-331 -332 0
188 331 332 0
c gate 333 330 -332 0
330 -333 0
-332 -333 0
-330 332 333 0
c gate 334 -329 -333 0
-329 -334 0
-333 -334 0
329 333 334 0
c gate 335 -318 328 0
-318 -335 0
328 -335 0
318 -328 335 0
c gate 336 8 11 0
8 -336 0
11 -336 0
-8 -11 336 0
c gate 337 7 12 0
7 -337 0
12 -337 0
-7 -12 337 0
c gate 338 336 337 0
336 -338 0
337 -338 0
-336 -337 338 0
c gate 339 6 13 0
6 -339 0
13 -339 0
-6 -13 339 0
c gate 340 -336 -337 0
-336 -340 0
-337 -340 0
336 337 340 0
c gate 341 -338 -340 0
-338 -341 0
-340 -341 0
338 340 341 0
c gate 342 339 341 0
339 -342 0
341 -342 0
-339 -341 342 0
c gate 343 -338 -342 0
-338 -343 0
-342 -343 0
338 342 343 0
c gate 344 -204 -206 0
-204 -344 0
-206 -344 0
204 206 344 0
c gate 345 -207 -344 0
-207 -345 0
-344 -345 0
207 344 345 0
c gate 346 -343 345 0
-343 -346 0
345 -346 0
343 -345 346 0
c gate 347 4 16 0
4 -347 0
16 -347 0
-4 -16 347 0
c gate 348 6 14 0
6 -348 0
14 -348 0
-6 -14 348 0
c gate 349 5 15 0
5 -349 0
15 -349 0
-5 -15 349 0
c gate 350 -348 -349 0
-348 -350 0
-349 -350 0
348 349 350 0
c gate 351 348 349 0
348 -351 0
349 -351 0
-348 -349 351 0
c gate 352 -350 -351 0
-350 -352 0
-351 -352 0
350 351 352 0
c gate 353 -347 -352 0
-347 -353 0
-352 -353 0
347 352 353 0
c gate 354 347 352 0
347 -354 0
352 -354 0
-347 -352 354 0
c gate 355 -353 -354 0
-353 -355 0
-354 -355 0
353 354 355 0
c gate 356 343 -345 0
343 -356 0
-345 -356 0
-343 345 356 0
c gate 357 -346 -356 0
-346 -357 0
-356 -357 0
346 356 357 0
c gate 358 355 357 0
355 -358 0
357 -358 0
-355 -357 358 0
c gate 359 -346 -358 0
-346 -359 0
-358 -359 0
346 358 359 0
c gate 360 -226 -228 0
-226 -360 0
-228 -360 0
226 228 360 0
c gate 361 -229 -360 0
-229 -361 0
-360 -361 0
229 360 361 0
c gate 362 -359 361 0
-359 -362 0
361 -362 0
359 -361 362 0
c gate 363 3 17 0
3 -363 0
17 -363 0
-3 -17 363 0
c gate 364 2 18 0
2 -364 0
18 -364 0
-2 -18 364 0
c gate 365 363 364 0
363 -365 0
364 -365 0
-363 -364 365 0
c gate 366 1 19 0
1 -366 0
19 -366 0
-1 -19 366 0
c gate 367 -363 -364 0
-363 -367 0
-364 -367 0
363 364 367 0
c gate 368 -365 -367 0
-365 -368 0
-367 -368 0
365 367 368 0
c gate 369 366 368 0
366 -369 0
368 -369 0
-366 -368 369 0
c gate 370 -365 -369 0
-365 -370 0
-369 -370 0
365 369 370 0
c gate 371 -253 -255 0
-253 -371 0
-255 -371 0
253 255 371 0
c gate 372 -256 -371 0
-256 -372 0
-371 -372 0
256 371 372 0
c gate 373 -351 -354 0
-351 -373 0
-354 -373 0
351 354 373 0
c gate 374 372 -373 0
372 -374 0
-373 -374 0
-372 373 374 0
c gate 375 -372 373 0
-372 -375 0
373 -375 0
372 -373 375 0
c gate 376 -374 -375 0
-374 -376 0
-375 -376 0
374 375 376 0
c gate 377 370 -376 0
370 -377 0
-376 -377 0
-370 376 377 0
c gate 378 -370 376 0
-370 -378 0
376 -378 0
370 -376 378 0
c gate 379 -377 -378 0
-377 -379 0
-378 -379 0
377 378 379 0
c gate 380 359 -361 0
359 -380 0
-361 -380 0
-359 361 380 0
c gate 381 -362 -380 0
-362 -381 0
-380 -381 0
362 380 381 0
c gate 382 379 381 0
379 -382 0
381 -382 0
-379 -381 382 0
c gate 383 -362 -382 0
-362 -383 0
-382 -383 0
362 382 383 0
c gate 384 -273 -275 0
-273 -384 0
-275 -384 0
273 275 384 0
c gate 385 -276 -384 0
-276 -385 0
-384 -385 0
276 384 385 0
c gate 386 -383 385 0
-383 -386 0
385 -386 0
383 -385 386 0
c gate 387 -374 -378 0
-374 -387 0
-378 -387 0
374 378 387 0
c gate 388 383 -385 0
383 -388 0
-385 -388 0
-383 385 388 0
c gate 389 -386 -388 0
-386 -389 0
-388 -389 0
386 388 389 0
c gate 390 -387 389 0
-387 -390 0
389 -390 0
387 -389 390 0
c gate 391 -386 -390 0
-386 -391 0
-390 -391 0
386 390 391 0
c gate 392 298 -300 0
298 -392 0
-300 -392 0
-298 300 392 0
c gate 393 -301 -392 0
-301 -393 0
-392 -393 0
301 392 393 0
c gate 394 -391 393 0
-391 -394 0
393 -394 0
391 -393 394 0
c gate 395 3 20 0
3 -395 0
20 -395 0
-3 -20 395 0
c gate 396 391 -393 0
391 -396 0
-393 -396 0
-391 393 396 0
c gate 397 -394 -396 0
-394 -397 0
-396 -397 0
394 396 397 0
c gate 398 395 397 0
395 -398 0
397 -398 0
-395 -397 398 0
c gate 399 -394 -398 0
-394 -399 0
-398 -399 0
394 398 399 0
c gate 400 -314 -316 0
-314 -400 0
-316 -400 0
314 316 400 0
c gate 401 -317 -400 0
-317 -401 0
-400 -401 0
317 400 401 0
c gate 402 -399 401 0
-399 -402 0
401 -402 0
399 -401 402 0
c gate 403 -335 -402 0
-335 -403 0
-402 -403 0
335 402 403 0
c gate 404 334 -403 0
334 -404 0
-403 -404 0
-334 403 404 0
c gate 405 -189 199 0
-189 -405 0
199 -405 0
189 -199 405 0
c gate 406 -330 332 0
-330 -406 0
332 -406 0
330 -332 406 0
c gate 407 -405 -406 0
-405 -407 0
-406 -407 0
405 406 407 0
c gate 408 -404 407 0
-404 -408 0
407 -408 0
404 -407 408 0
c gate 409 7 11 0
7 -409 0
11 -409 0
-7 -11 409 0
c gate 410 6 12 0
6 -410 0
12 -410 0
-6 -12 410 0
c gate 411 409 410 0
409 -411 0
410 -411 0
-409 -410 411 0
c gate 412 -409 -410 0
-409 -412 0
-410 -412 0
409 410 412 0
c gate 413 -411 -412 0
-411 -413 0
-412 -413 0
411 412 413 0
c gate 414 5 13 0
5 -414 0
13 -414 0
-5 -13 414 0
c gate 415 413 414 0
413 -415 0
414 -415 0
-413 -414 415 0
c gate 416 -411 -415 0
-411 -416 0
-415 -416 0
411 415 416 0
c gate 417 -339 -341 0
-339 -417 0
-341 -417 0
339 341 417 0
c gate 418 -342 -417 0
-342 -418 0
-417 -418 0
342 417 418 0
c gate 419 -416 418 0
-416 -419 0
418 -419 0
416 -418 419 0
c gate 420 3 16 0
3 -420 0
16 -420 0
-3 -16 420 0
c gate 421 5 14 0
5 -421 0
14 -421 0
-5 -14 421 0
c gate 422 4 15 0
4 -422 0
15 -422 0
-4 -15 422 0
c gate 423 -421 -422 0
-421 -423 0
-422 -423 0
421 422 423 0
c gate 424 421 422 0
421 -424 0
422 -424 0
-421 -422 424 0
c gate 425 -423 -424 0
-423 -425 0
-424 -425 0
423 424 425 0
c gate 426 -420 -425 0
-420 -426 0
-425 -426 0
420 425 426 0
c gate 427 420 425 0
420 -427 0
425 -427 0
-420 -425 427 0
c gate 428 -426 -427 0
-426 -428 0
-427 -428 0
426 427 428 0
c gate 429 416 -418 0
416 -429 0
-418 -429 0
-416 418 429 0
c gate 430 -419 -429 0
-419 -430 0
-429 -430 0
419 429 430 0
c gate 431 428 430 0
428 -431 0
430 -431 0
-428 -430 431 0
c gate 432 -419 -431 0
-419 -432 0
-431 -432 0
419 431 432 0
c gate 433 -355 -357 0
-355 -433 0
-357 -433 0
355 357 433 0
c gate 434 -358 -433 0
-358 -434 0
-433 -434 0
358 433 434 0
c gate 435 -432 434 0
-432 -435 0
434 -435 0
432 -434 435 0
c gate 436 -366 -368 0
-366 -436 0
-368 -436 0
366 368 436 0
c gate 437 -369 -436 0
-369 -437 0
-436 -437 0
369 436 437 0
c gate 438 -424 -427 0
-424 -438 0
-427 -438 0
424 427 438 0
c gate 439 437 -438 0
437 -439 0
-438 -439 0
-437 438 439 0
c gate 440 -437 438 0
-437 -440 0
438 -440 0
437 -438 440 0
c gate 441 -439 -440 0
-439 -441 0
-440 -441 0
439 440 441 0
c gate 442 2 17 0
2 -442 0
17 -442 0
-2 -17 442 0
c gate 443 1 18 0
1 -443 0
18 -443 0
-1 -18 443 0
c gate 444 442 443 0
442 -444 0
443 -444 0
-442 -443 444 0
c gate 445 -441 -444 0
-441 -445 0
-444 -445 0
441 444 445 0
c gate 446 441 444 0
441 -446 0
444 -446 0
-441 -444 446 0
c gate 447 -445 -446 0
-445 -447 0
-446 -447 0
445 446 447 0
c gate 448 432 -434 0
432 -448 0
-434 -448 0
-432 434 448 0
c gate 449 -435 -448 0
-435 -449 0
-448 -449 0
435 448 449 0
c gate 450 447 449 0
447 -450 0
449 -450 0
-447 -449 450 0
c gate 451 -435 -450 0
-435 -451 0
-450 -451 0
435 450 451 0
c gate 452 -379 -381 0
-379 -452 0
-381 -452 0
379 381 452 0
c gate 453 -382 -452 0
-382 -453 0
-452 -453 0
382 452 453 0
c gate 454 -451 453 0
-451 -454 0
453 -454 0
451 -453 454 0
c gate 455 -439 -446 0
-439 -455 0
-446 -455 0
439 446 455 0
c gate 456 451 -453 0
451 -456 0
-453 -456 0
-451 453 456 0
c gate 457 -454 -456 0
-454 -457 0
-456 -457 0
454 456 457 0
c gate 458 -455 457 0
-455 -458 0
457 -458 0
455 -457 458 0
c gate 459 -454 -458 0
-454 -459 0
-458 -459 0
454 458 459 0
c gate 460 387 -389 0
387 -460 0
-389 -460 0
-387 389 460 0
c gate 461 -390 -460 0
-390 -461 0
-460 -461 0
390 460 461 0
c gate 462 -459 461 0
-459 -462 0
461 -462 0
459 -461 462 0
c gate 463 2 20 0
2 -463 0
20 -463 0
-2 -20 463 0
c gate 464 459 -461 0
459 -464 0
-461 -464 0
-459 461 464 0
c gate 465 -462 -464 0
-462 -465 0
-464 -465 0
462 464 465 0
c gate 466 463 465 0
463 -466 0
465 -466 0
-463 -465 466 0
c gate 467 -462 -466 0
-462 -467 0
-466 -467 0
462 466 467 0
c gate 468 -395 -397 0
-395 -468 0
-397 -468 0
395 397 468 0
c gate 469 -398 -468 0
-398 -469 0
-468 -469 0
398 468 469 0
c gate 470 -467 469 0
-467 -470 0
469 -470 0
467 -469 470 0
c gate 471 6 11 0
6 -471 0
11 -471 0
-6 -11 471 0
c gate 472 5 12 0
5 -472 0
12 -472 0
-5 -12 472 0
c gate 473 471 472 0
471 -473 0
472 -473 0
-471 -472 473 0
c gate 474 4 13 0
4 -474 0
13 -474 0
-4 -13 474 0
c gate 475 -471 -472 0
-471 -475 0
-472 -475 0
471 472 475 0
c gate 476 -473 -475 0
-473 -476 0
-475 -476 0
473 475 476 0
c gate 477 474 476 0
474 -477 0
476 -477 0
-474 -476 477 0
c gate 478 -473 -477 0
-473 -478 0
-477 -478 0
473 477 478 0
c gate 479 -413 -414 0
-413 -479 0
-414 -479 0
413 414 479 0
c gate 480 -415 -479 0
-415 -480 0
-479 -480 0
415 479 480 0
c gate 481 -478 480 0
-478 -481 0
480 -481 0
478 -480 481 0
c gate 482 478 -480 0
478 -482 0
-480 -482 0
-478 480 482 0
c gate 483 -481 -482 0
-481 -483 0
-482 -483 0
481 482 483 0
c gate 484 2 16 0
2 -484 0
16 -484 0
-2 -16 484 0
c gate 485 4 14 0
4 -485 0
14 -485 0
-4 -14 485 0
c gate 486 3 15 0
3 -486 0
15 -486 0
-3 -15 486 0
c gate 487 -485 -486 0
-485 -487 0
-486 -487 0
485 486 487 0
c gate 488 485 486 0
485 -488 0
486 -488 0
-485 -486 488 0
c gate 489 -487 -488 0
-487 -489 0
-488 -489 0
487 488 489 0
c gate 490 484 489 0
484 -490 0
489 -490 0
-484 -489 490 0
c gate 491 -484 -489 0
-484 -491 0
-489 -491 0
484 489 491 0
c gate 492 -490 -491 0
-490 -492 0
-491 -492 0
490 491 492 0
c gate 493 483 492 0
483 -493 0
492 -493 0
-483 -492 493 0
c gate 494 -481 -493 0
-481 -494 0
-493 -494 0
481 493 494 0
c gate 495 -428 -430 0
-428 -495 0
-430 -495 0
428 430 495 0
c gate 496 -431 -495 0
-431 -496 0
-495 -496 0
431 495 496 0
c gate 497 -494 496 0
-494 -497 0
496 -497 0
494 -496 497 0
c gate 498 -442 -443 0
-442 -498 0
-443 -498 0
442 443 498 0
c gate 499 -444 -498 0
-444 -499 0
-498 -499 0
444 498 499 0
c gate 500 -488 -490 0
-488 -500 0
-490 -500 0
488 490 500 0
c gate 501 -499 500 0
-499 -501 0
500 -501 0
499 -500 501 0
c gate 502 499 -500 0
499 -502 0
-500 -502 0
-499 500 502 0
c gate 503 -501 -502 0
-501 -503 0
-502 -503 0
501 502 503 0
c gate 504 494 -496 0
494 -504 0
-496 -504 0
-494 496 504 0
c gate 505 -497 -504 0
-497 -505 0
-504 -505 0
497 504 505 0
c gate 506 503 505 0
503 -506 0
505 -506 0
-503 -505 506 0
c gate 507 -497 -506 0
-497 -507 0
-506 -507 0
497 506 507 0
c gate 508 -447 -449 0
-447 -508 0
-449 -508 0
447 449 508 0
c gate 509 -450 -508 0
-450 -509 0
-508 -509 0
450 508 509 0
c gate 510 -507 509 0
-507 -510 0
509 -510 0
507 -509 510 0
c gate 511 507 -509 0
507 -511 0
-509 -511 0
-507 509 511 0
c gate 512 -510 -511 0
-510 -512 0
-511 -512 0
510 511 512 0
c gate 513 502 512 0
502 -513 0
512 -513 0
-502 -512 513 0
c gate 514 -510 -513 0
-510 -514 0
-513 -514 0
510 513 514 0
c gate 515 455 -457 0
455 -515 0
-457 -515 0
-455 457 515 0
c gate 516 -458 -515 0
-458 -516 0
-515 -516 0
458 515 516 0
c gate 517 -514 516 0
-514 -517 0
516 -517 0
514 -516 517 0
c gate 518 1 20 0
1 -518 0
20 -518 0
-1 -20 518 0
c gate 519 514 -516 0
514 -519 0
-516 -519 0
-514 516 519 0
c gate 520 -517 -519 0
-517 -520 0
-519 -520 0
517 519 520 0
c gate 521 518 520 0
518 -521 0
520 -521 0
-518 -520 521 0
c gate 522 -517 -521 0
-517 -522 0
-521 -522 0
517 521 522 0
c gate 523 -463 -465 0
-463 -523 0
-465 -523 0
463 465 523 0
c gate 524 -466 -523 0
-466 -524 0
-523 -524 0
466 523 524 0
c gate 525 522 -524 0
522 -525 0
-524 -525 0
-522 524 525 0
c gate 526 -522 524 0
-522 -526 0
524 -526 0
522 -524 526 0
c gate 527 -518 -520 0
-518 -527 0
-520 -527 0
518 520 527 0
c gate 528 -521 -527 0
-521 -528 0
-527 -528 0
521 527 528 0
c gate 529 5 11 0
5 -529 0
11 -529 0
-5 -11 529 0
c gate 530 4 12 0
4 -530 0
12 -530 0
-4 -12 530 0
c gate 531 529 530 0
529 -531 0
530 -531 0
-529 -530 531 0
c gate 532 -529 -530 0
-529 -532 0
-530 -532 0
529 530 532 0
c gate 533 -531 -532 0
-531 -533 0
-532 -533 0
531 532 533 0
c gate 534 3 13 0
3 -534 0
13 -534 0
-3 -13 534 0
c gate 535 533 534 0
533 -535 0
534 -535 0
-533 -534 535 0
c gate 536 -531 -535 0
-531 -536 0
-535 -536 0
531 535 536 0
c gate 537 -474 -476 0
-474 -537 0
-476 -537 0
474 476 537 0
c gate 538 -477 -537 0
-477 -538 0
-537 -538 0
477 537 538 0
c gate 539 -536 538 0
-536 -539 0
538 -539 0
536 -538 539 0
c gate 540 1 16 0
1 -540 0
16 -540 0
-1 -16 540 0
c gate 541 3 14 0
3 -541 0
14 -541 0
-3 -14 541 0
c gate 542 2 15 0
2 -542 0
15 -542 0
-2 -15 542 0
c gate 543 -541 -542 0
-541 -543 0
-542 -543 0
541 542 543 0
c gate 544 541 542 0
541 -544 0
542 -544 0
-541 -542 544 0
c gate 545 -543 -544 0
-543 -545 0
-544 -545 0
543 544 545 0
c gate 546 540 545 0
540 -546 0
545 -546 0
-540 -545 546 0
c gate 547 -540 -545 0
-540 -547 0
-545 -547 0
540 545 547 0
c gate 548 -546 -547 0
-546 -548 0
-547 -548 0
546 547 548 0
c gate 549 536 -538 0
536 -549 0
-538 -549 0
-536 538 549 0
c gate 550 -539 -549 0
-539 -550 0
-549 -550 0
539 549 550 0
c gate 551 548 550 0
548 -551 0
550 -551 0
-548 -550 551 0
c gate 552 -539 -551 0
-539 -552 0
-551 -552 0
539 551 552 0
c gate 553 -483 -492 0
-483 -553 0
-492 -553 0
483 492 553 0
c gate 554 -493 -553 0
-493 -554 0
-553 -554 0
493 553 554 0
c gate 555 -552 554 0
-552 -555 0
554 -555 0
552 -554 555 0
c gate 556 552 -554 0
552 -556 0
-554 -556 0
-552 554 556 0
c gate 557 -555 -556 0
-555 -557 0
-556 -557 0
555 556 557 0
c gate 558 1 17 0
1 -558 0
17 -558 0
-1 -17 558 0
c gate 559 -544 -546 0
-544 -559 0
-546 -559 0
544 546 559 0
c gate 560 558 -559 0
558 -560 0
-559 -560 0
-558 559 560 0
c gate 561 -558 559 0
-558 -561 0
559 -561 0
558 -559 561 0
c gate 562 -560 -561 0
-560 -562 0
-561 -562 0
560 561 562 0
c gate 563 557 562 0
557 -563 0
562 -563 0
-557 -562 563 0
c gate 564 -555 -563 0
-555 -564 0
-563 -564 0
555 563 564 0
c gate 565 -503 -505 0
-503 -565 0
-505 -565 0
503 505 565 0
c gate 566 -506 -565 0
-506 -566 0
-565 -566 0
506 565 566 0
c gate 567 -564 566 0
-564 -567 0
566 -567 0
564 -566 567 0
c gate 568 564 -566 0
564 -568 0
-566 -568 0
-564 566 568 0
c gate 569 -567 -568 0
-567 -569 0
-568 -569 0
567 568 569 0
c gate 570 560 569 0
560 -570 0
569 -570 0
-560 -569 570 0
c gate 571 -567 -570 0
-567 -571 0
-570 -571 0
567 570 571 0
c gate 572 -502 -512 0
-502 -572 0
-512 -572 0
502 512 572 0
c gate 573 -513 -572 0
-513 -573 0
-572 -573 0
513 572 573 0
c gate 574 -571 573 0
-571 -574 0
573 -574 0
571 -573 574 0
c gate 575 528 574 0
528 -575 0
574 -575 0
-528 -574 575 0
c gate 576 -526 -575 0
-526 -576 0
-575 -576 0
526 575 576 0
c gate 577 -560 -569 0
-560 -577 0
-569 -577 0
560 569 577 0
c gate 578 -570 -577 0
-570 -578 0
-577 -578 0
570 577 578 0
c gate 579 4 11 0
4 -579 0
11 -579 0
-4 -11 579 0
c gate 580 3 12 0
3 -580 0
12 -580 0
-3 -12 580 0
c gate 581 579 580 0
579 -581 0
580 -581 0
-579 -580 581 0
c gate 582 -579 -580 0
-579 -582 0
-580 -582 0
579 580 582 0
c gate 583 -581 -582 0
-581 -583 0
-582 -583 0
581 582 583 0
c gate 584 2 13 0
2 -584 0
13 -584 0
-2 -13 584 0
c gate 585 583 584 0
583 -585 0
584 -585 0
-583 -584 585 0
c gate 586 -581 -585 0
-581 -586 0
-585 -586 0
581 585 586 0
c gate 587 -533 -534 0
-533 -587 0
-534 -587 0
533 534 587 0
c gate 588 -535 -587 0
-535 -588 0
-587 -588 0
535 587 588 0
c gate 589 -586 588 0
-586 -589 0
588 -589 0
586 -588 589 0
c gate 590 2 14 0
2 -590 0
14 -590 0
-2 -14 590 0
c gate 591 1 15 0
1 -591 0
15 -591 0
-1 -15 591 0
c gate 592 590 591 0
590 -592 0
591 -592 0
-590 -591 592 0
c gate 593 -590 -591 0
-590 -593 0
-591 -593 0
590 591 593 0
c gate 594 -592 -593 0
-592 -594 0
-593 -594 0
592 593 594 0
c gate 595 586 -588 0
586 -595 0
-588 -595 0
-586 588 595 0
c gate 596 -589 -595 0
-589 -596 0
-595 -596 0
589 595 596 0
c gate 597 594 596 0
594 -597 0
596 -597 0
-594 -596 597 0
c gate 598 -589 -597 0
-589 -598 0
-597 -598 0
589 597 598 0
c gate 599 -548 -550 0
-548 -599 0
-550 -599 0
548 550 599 0
c gate 600 -551 -599 0
-551 -600 0
-599 -600 0
551 599 600 0
c gate 601 -598 600 0
-598 -601 0
600 -601 0
598 -600 601 0
c gate 602 598 -600 0
598 -602 0
-600 -602 0
-598 600 602 0
c gate 603 -601 -602 0
-601 -603 0
-602 -603 0
601 602 603 0
c gate 604 592 603 0
592 -604 0
603 -604 0
-592 -603 604 0
c gate 605 -601 -604 0
-601 -605 0
-604 -605 0
601 604 605 0
c gate 606 -557 -562 0
-557 -606 0
-562 -606 0
557 562 606 0
c gate 607 -563 -606 0
-563 -607 0
-606 -607 0
563 606 607 0
c gate 608 -605 607 0
-605 -608 0
607 -608 0
605 -607 608 0
c gate 609 578 608 0
578 -609 0
608 -609 0
-578 -608 609 0
c gate 610 571 -573 0
571 -610 0
-573 -610 0
-571 573 610 0
c gate 611 -574 -610 0
-574 -611 0
-610 -611 0
574 610 611 0
c gate 612 609 611 0
609 -612 0
611 -612 0
-609 -611 612 0
c gate 613 528 612 0
528 -613 0
612 -613 0
-528 -612 613 0
c gate 614 576 -613 0
576 -614 0
-613 -614 0
-576 613 614 0
c gate 615 -525 -614 0
-525 -615 0
-614 -615 0
525 614 615 0
c gate 616 -470 -615 0
-470 -616 0
-615 -616 0
470 615 616 0
c gate 617 399 -401 0
399 -617 0
-401 -617 0
-399 401 617 0
c gate 618 467 -469 0
467 -618 0
-469 -618 0
-467 469 618 0
c gate 619 -617 -618 0
-617 -619 0
-618 -619 0
617 618 619 0
c gate 620 334 619 0
334 -620 0
619 -620 0
-334 -619 620 0
c gate 621 408 620 0
408 -621 0
620 -621 0
-408 -620 621 0
c gate 622 -616 621 0
-616 -622 0
621 -622 0
616 -621 622 0
c gate 623 408 -622 0
408 -623 0
-622 -623 0
-408 622 623 0
c gate 624 -200 -623 0
-200 -624 0
-623 -624 0
200 623 624 0
c gate 625 -194 -197 0
-194 -625 0
-197 -625 0
194 197 625 0
c gate 626 -81 -83 0
-81 -626 0
-83 -626 0
81 83 626 0
c gate 627 -84 -626 0
-84 -627 0
-626 -627 0
84 626 627 0
c gate 628 -625 627 0
-625 -628 0
627 -628 0
625 -627 628 0
c gate 629 -609 -611 0
-609 -629 0
-611 -629 0
609 611 629 0
c gate 630 -592 -603 0
-592 -630 0
-603 -630 0
592 603 630 0
c gate 631 -604 -630 0
-604 -631 0
-630 -631 0
604 630 631 0
c gate 632 -583 -584 0
-583 -632 0
-584 -632 0
583 584 632 0
c gate 633 -585 -632 0
-585 -633 0
-632 -633 0
585 632 633 0
c gate 634 3 11 0
3 -634 0
11 -634 0
-3 -11 634 0
c gate 635 2 12 0
2 -635 0
12 -635 0
-2 -12 635 0
c gate 636 634 635 0
634 -636 0
635 -636 0
-634 -635 636 0
c gate 637 -634 -635 0
-634 -637 0
-635 -637 0
634 635 637 0
c gate 638 1 13 0
1 -638 0
13 -638 0
-1 -13 638 0
c gate 639 -637 638 0
-637 -639 0
638 -639 0
637 -638 639 0
c gate 640 -636 -639 0
-636 -640 0
-639 -640 0
636 639 640 0
c gate 641 633 -640 0
633 -641 0
-640 -641 0
-633 640 641 0
c gate 642 1 14 0
1 -642 0
14 -642 0
-1 -14 642 0
c gate 643 -633 640 0
-633 -643 0
640 -643 0
633 -640 643 0
c gate 644 -641 -643 0
-641 -644 0
-643 -644 0
641 643 644 0
c gate 645 642 644 0
642 -645 0
644 -645 0
-642 -644 645 0
c gate 646 -641 -645 0
-641 -646 0
-645 -646 0
641 645 646 0
c gate 647 -594 -596 0
-594 -647 0
-596 -647 0
594 596 647 0
c gate 648 -597 -647 0
-597 -648 0
-647 -648 0
597 647 648 0
c gate 649 -646 648 0
-646 -649 0
648 -649 0
646 -648 649 0
c gate 650 646 -648 0
646 -650 0
-648 -650 0
-646 648 650 0
c gate 651 -642 -644 0
-642 -651 0
-644 -651 0
642 644 651 0
c gate 652 -3 -13 0
-3 -652 0
-13 -652 0
3 13 652 0
c gate 653 -534 -652 0
-534 -653 0
-652 -653 0
534 652 653 0
c gate 654 1 11 0
1 -654 0
11 -654 0
-1 -11 654 0
c gate 655 635 654 0
635 -655 0
654 -655 0
-635 -654 655 0
c gate 656 -653 655 0
-653 -656 0
655 -656 0
653 -655 656 0
c gate 657 -645 656 0
-645 -657 0
656 -657 0
645 -656 657 0
c gate 658 -651 657 0
-651 -658 0
657 -658 0
651 -657 658 0
c gate 659 -650 658 0
-650 -659 0
658 -659 0
650 -658 659 0
c gate 660 -649 659 0
-649 -660 0
659 -660 0
649 -659 660 0
c gate 661 631 660 0
631 -661 0
660 -661 0
-631 -660 661 0
c gate 662 631 649 0
631 -662 0
649 -662 0
-631 -649 662 0
c gate 663 -661 -662 0
-661 -663 0
-662 -663 0
661 662 663 0
c gate 664 605 -607 0
605 -664 0
-607 -664 0
-605 607 664 0
c gate 665 -608 -664 0
-608 -665 0
-664 -665 0
608 664 665 0
c gate 666 -663 665 0
-663 -666 0
665 -666 0
663 -665 666 0
c gate 667 578 666 0
578 -667 0
666 -667 0
-578 -666 667 0
c gate 668 -629 667 0
-629 -668 0
667 -668 0
629 -667 668 0
c gate 669 -200 668 0
-200 -669 0
668 -669 0
200 -668 669 0
c gate 670 -470 669 0
-470 -670 0
669 -670 0
470 -669 670 0
c gate 671 -528 -574 0
-528 -671 0
-574 -671 0
528 574 671 0
c gate 672 -525 -671 0
-525 -672 0
-671 -672 0
525 671 672 0
c gate 673 670 672 0
670 -673 0
672 -673 0
-670 -672 673 0
c gate 674 576 673 0
576 -674 0
673 -674 0
-576 -673 674 0
c gate 675 621 674 0
621 -675 0
674 -675 0
-621 -674 675 0
c gate 676 -628 -675 0
-628 -676 0
-675 -676 0
628 675 676 0
c gate 677 -624 676 0
-624 -677 0
676 -677 0
624 -676 677 0
c gate 678 85 -97 0
85 -678 0
-97 -678 0
-85 97 678 0
c gate 679 -98 -678 0
-98 -679 0
-678 -679 0
98 678 679 0
c gate 680 625 -627 0
625 -680 0
-627 -680 0
-625 627 680 0
c gate 681 679 -680 0
679 -681 0
-680 -681 0
-679 680 681 0
c gate 682 -677 681 0
-677 -682 0
681 -682 0
677 -681 682 0
c gate 683 -98 -682 0
-98 -683 0
-682 -683 0
98 682 683 0
c gate 684 -92 -95 0
-92 -684 0
-95 -684 0
92 95 684 0
c gate 685 20 89 0
20 -685 0
89 -685 0
-20 -89 685 0
c gate 686 10 20 0
10 -686 0
20 -686 0
-10 -20 686 0
c gate 687 -89 -686 0
-89 -687 0
-686 -687 0
89 686 687 0
c gate 688 -685 -687 0
-685 -688 0
-687 -688 0
685 687 688 0
c gate 689 684 -688 0
684 -689 0
-688 -689 0
-684 688 689 0
c gate 690 -683 -689 0
-683 -690 0
-689 -690 0
683 689 690 0
c gate 691 -684 -687 0
-684 -691 0
-687 -691 0
684 687 691 0
c gate 692 -685 -691 0
-685 -692 0
-691 -692 0
685 691 692 0
c gate 693 -690 -692 0
-690 -693 0
-692 -693 0
690 692 693 0
c gate 694 624 -680 0
624 -694 0
-680 -694 0
-624 680 694 0
c gate 695 -628 679 0
-628 -695 0
679 -695 0
628 -679 695 0
c gate 696 -694 695 0
-694 -696 0
695 -696 0
694 -695 696 0
c gate 697 -678 -696 0
-678 -697 0
-696 -697 0
678 696 697 0
c gate 698 -689 697 0
-689 -698 0
697 -698 0
689 -697 698 0
c gate 699 -690 698 0
-690 -699 0
698 -699 0
690 -698 699 0
c gate 700 -685 -699 0
-685 -700 0
-699 -700 0
685 699 700 0
c gate 701 -693 -700 0
-693 -701 0
-700 -701 0
693 700 701 0
c gate 702 -683 -697 0
-683 -702 0
-697 -702 0
683 697 702 0
c gate 703 -661 -668 0
-661 -703 0
-668 -703 0
661 668 703 0
c gate 704 -702 703 0
-702 -704 0
703 -704 0
702 -703 704 0
c gate 705 -701 704 0
-701 -705 0
704 -705 0
701 -704 705 0
c PO
-705 0
